#============================================
#FHI-aims file
#Model: scaled/Graphene
# geometry index: 1.15
# PBC found: 7x7
#============================================
lattice_vector 19.823006 0.000000 0.000000
lattice_vector 9.911494 17.167203 0.000000
lattice_vector 0.000000 0.000000 59.999966
atom -0.009039 -0.009676 0.000331 C
atom 1.405629 0.807540 -0.000136 C
atom 1.404483 2.440851 0.000574 C
atom 2.819964 3.258068 0.002660 C
atom 2.819504 4.892950 0.004582 C
atom 4.231613 5.710465 0.005167 C
atom 4.231369 7.349708 0.007178 C
atom 5.645005 8.170883 0.008340 C
atom 5.649451 9.805707 0.010187 C
atom 7.068893 10.625358 0.011152 C
atom 7.070840 12.256897 0.012035 C
atom 8.486981 13.073999 0.011259 C
atom 8.486984 14.708128 0.006581 C
atom 9.902085 15.523925 0.003765 C
atom 2.822963 -0.010672 0.000223 C
atom 4.237527 0.804479 0.000430 C
atom 4.235601 2.440345 0.002161 C
atom 5.649436 3.254627 0.002416 C
atom 5.645164 4.889329 0.004271 C
atom 7.059435 5.705786 -0.004055 C
atom 7.058962 7.354385 -0.002142 C
atom 8.486978 8.179113 -0.001096 C
atom 8.486980 9.811698 0.010401 C
atom 9.905066 10.625359 0.011005 C
atom 9.903127 12.256886 0.011875 C
atom 11.320714 13.072975 0.009218 C
atom 11.319463 14.705723 0.005171 C
atom 12.734870 15.522299 0.001925 C
atom 5.653379 -0.012927 -0.000230 C
atom 7.071013 0.803332 0.000408 C
atom 7.069265 2.435036 0.001356 C
atom 8.486992 3.248497 0.002179 C
atom 8.487002 4.881890 -0.005234 C
atom 9.914512 5.705788 -0.004218 C
atom 9.915007 7.354372 -0.002275 C
atom 11.328954 8.170871 0.008074 C
atom 11.324518 9.805696 0.009932 C
atom 12.738585 10.619801 0.010144 C
atom 12.736566 12.255498 0.008629 C
atom 14.151210 13.070804 0.004424 C
atom 14.150719 14.704853 0.001682 C
atom 15.566216 15.521631 -0.000626 C
atom 8.486997 -0.013717 -0.000413 C
atom 9.902972 0.803324 0.000369 C
atom 9.904717 2.435035 0.001258 C
atom 11.324533 3.254632 0.002186 C
atom 11.328815 4.889321 0.003988 C
atom 12.742351 5.710460 0.004789 C
atom 12.742598 7.349710 0.006813 C
atom 14.154636 8.167022 0.007725 C
atom 14.154238 9.801895 0.008379 C
atom 15.569548 10.619033 0.004907 C
atom 15.568466 12.252400 0.002797 C
atom 16.983041 13.069544 -0.000441 C
atom 16.983460 14.703310 -0.001523 C
atom 18.398488 15.518925 -0.001794 C
atom 11.320608 -0.012928 -0.000277 C
atom 12.736454 0.804479 0.000302 C
atom 12.738382 2.440345 0.001910 C
atom 14.154005 3.258070 0.002346 C
atom 14.154464 4.892951 0.004201 C
atom 15.570169 5.712500 0.003954 C
atom 15.570245 7.347379 0.005368 C
atom 16.983529 8.164826 0.003676 C
atom 16.983516 9.801396 0.003037 C
atom 18.398492 10.617903 0.001439 C
atom 18.398490 12.252368 -0.000261 C
atom 19.813940 13.069545 -0.000335 C
atom 19.813521 14.703311 -0.001516 C
atom 21.230759 15.521630 -0.000679 C
atom 14.151020 -0.010669 0.000031 C
atom 15.568348 0.807541 -0.000393 C
atom 15.569495 2.440852 0.000348 C
atom 16.983432 3.258453 0.000037 C
atom 16.983469 4.895005 0.001723 C
atom 18.398490 5.712451 0.002004 C
atom 18.398490 7.347317 0.002862 C
atom 19.813446 8.164825 0.003857 C
atom 19.813463 9.801396 0.003151 C
atom 21.227433 10.619033 0.005109 C
atom 21.228514 12.252404 0.002947 C
atom 22.645765 13.070809 0.004548 C
atom 22.646257 14.704856 0.001667 C
atom 24.062103 15.522302 0.001928 C
atom 16.983019 -0.009675 0.000155 C
atom 18.398492 0.807579 -0.000671 C
atom 18.398491 2.441944 -0.000909 C
atom 19.813547 3.258452 0.000178 C
atom 19.813504 4.895004 0.001900 C
atom 21.226810 5.712500 0.004279 C
atom 21.226732 7.347379 0.005665 C
atom 22.642338 8.167023 0.008082 C
atom 22.642740 9.801902 0.008688 C
atom 24.058383 10.619811 0.010454 C
atom 24.060409 12.255505 0.008876 C
atom 25.476259 13.072978 0.009469 C
atom 25.477509 14.705730 0.005168 C
atom 26.894885 15.523926 0.003731 C
