#============================================
#FHI-aims file
#Model: scaled/Graphene
# geometry index: 0.96
# PBC found: 7x7
#============================================
lattice_vector 16.494076 0.000000 0.000000
lattice_vector 8.247031 14.284270 0.000000
lattice_vector 0.000000 0.000000 59.999966
atom -0.007521 -0.008051 0.000275 C
atom 1.169578 0.671928 -0.000113 C
atom 1.168625 2.030952 0.000478 C
atom 2.346400 2.710932 0.002214 C
atom 2.346017 4.071264 0.003812 C
atom 3.520987 4.751492 0.004299 C
atom 3.520784 6.115453 0.005973 C
atom 4.697025 6.798725 0.006940 C
atom 4.700724 8.159009 0.008476 C
atom 5.881795 8.841014 0.009279 C
atom 5.883416 10.198564 0.010014 C
atom 7.061740 10.878448 0.009368 C
atom 7.061742 12.238154 0.005476 C
atom 8.239202 12.916952 0.003132 C
atom 2.348895 -0.008880 0.000185 C
atom 3.525908 0.669381 0.000357 C
atom 3.524305 2.030532 0.001798 C
atom 4.700712 2.708069 0.002011 C
atom 4.697157 4.068251 0.003554 C
atom 5.873926 4.747598 -0.003374 C
atom 5.873532 6.119344 -0.001782 C
atom 7.061737 6.805573 -0.000912 C
atom 7.061739 8.163994 0.008655 C
atom 8.241683 8.841015 0.009157 C
atom 8.240069 10.198555 0.009881 C
atom 9.419597 10.877596 0.007670 C
atom 9.418556 12.236153 0.004303 C
atom 10.596270 12.915599 0.001602 C
atom 4.703993 -0.010757 -0.000191 C
atom 5.883560 0.668426 0.000340 C
atom 5.882105 2.026114 0.001129 C
atom 7.061749 2.702968 0.001813 C
atom 7.061757 4.062061 -0.004355 C
atom 8.249542 4.747600 -0.003510 C
atom 8.249954 6.119333 -0.001893 C
atom 9.426453 6.798716 0.006718 C
atom 9.422762 8.159000 0.008264 C
atom 10.599361 8.836390 0.008440 C
atom 10.597681 10.197401 0.007180 C
atom 11.774761 10.875790 0.003681 C
atom 11.774351 12.235429 0.001400 C
atom 12.952141 12.915043 -0.000521 C
atom 7.061754 -0.011414 -0.000344 C
atom 8.239940 0.668420 0.000307 C
atom 8.241392 2.026113 0.001047 C
atom 9.422775 2.708073 0.001819 C
atom 9.426338 4.068245 0.003318 C
atom 10.602495 4.751488 0.003985 C
atom 10.602700 6.115454 0.005669 C
atom 11.777611 6.795513 0.006428 C
atom 11.777280 8.155837 0.006972 C
atom 12.954913 8.835751 0.004083 C
atom 12.954013 10.194823 0.002327 C
atom 14.131035 10.874742 -0.000367 C
atom 14.131383 12.234145 -0.001267 C
atom 15.308782 12.912791 -0.001493 C
atom 9.419509 -0.010757 -0.000230 C
atom 10.597588 0.669380 0.000251 C
atom 10.599192 2.030531 0.001589 C
atom 11.777086 2.710934 0.001952 C
atom 11.777468 4.071265 0.003496 C
atom 12.955430 4.753185 0.003290 C
atom 12.955493 6.113515 0.004467 C
atom 14.131441 6.793686 0.003059 C
atom 14.131429 8.155422 0.002527 C
atom 15.308785 8.834811 0.001197 C
atom 15.308783 10.194796 -0.000217 C
atom 16.486533 10.874742 -0.000279 C
atom 16.486184 12.234145 -0.001261 C
atom 17.665422 12.915042 -0.000565 C
atom 11.774602 -0.008877 0.000026 C
atom 12.953915 0.671928 -0.000327 C
atom 12.954869 2.030954 0.000289 C
atom 14.131360 2.711253 0.000031 C
atom 14.131391 4.072974 0.001434 C
atom 15.308784 4.753145 0.001668 C
atom 15.308783 6.113463 0.002381 C
atom 16.486122 6.793685 0.003209 C
atom 16.486137 8.155422 0.002622 C
atom 17.662655 8.835751 0.004251 C
atom 17.663555 10.194826 0.002452 C
atom 18.842802 10.875794 0.003784 C
atom 18.843212 12.235431 0.001387 C
atom 20.021292 12.915601 0.001605 C
atom 14.131017 -0.008050 0.000129 C
atom 15.308785 0.671960 -0.000558 C
atom 15.308785 2.031862 -0.000757 C
atom 16.486206 2.711251 0.000148 C
atom 16.486171 4.072973 0.001581 C
atom 17.662137 4.753185 0.003560 C
atom 17.662072 6.113515 0.004714 C
atom 18.839951 6.795514 0.006725 C
atom 18.840285 8.155843 0.007229 C
atom 20.018196 8.836398 0.008698 C
atom 20.019882 10.197406 0.007386 C
atom 21.197964 10.877599 0.007878 C
atom 21.199004 12.236158 0.004300 C
atom 22.378357 12.916953 0.003104 C
