#============================================
#FHI-aims file
#Model: scaled/Graphene
# geometry index: 1.08
# PBC found: 7x7
#============================================
lattice_vector 18.644712 0.000000 0.000000
lattice_vector 9.322347 16.146772 0.000000
lattice_vector 0.000000 0.000000 59.999966
atom -0.008502 -0.009101 0.000311 C
atom 1.322077 0.759539 -0.000128 C
atom 1.321000 2.295765 0.000540 C
atom 2.652343 3.064406 0.002502 C
atom 2.651911 4.602110 0.004309 C
atom 3.980083 5.371031 0.004860 C
atom 3.979853 6.912836 0.006751 C
atom 5.309462 7.685200 0.007844 C
atom 5.313643 9.222849 0.009581 C
atom 6.648713 9.993779 0.010489 C
atom 6.650545 11.528338 0.011320 C
atom 7.982508 12.296871 0.010589 C
atom 7.982511 13.833866 0.006190 C
atom 9.313498 14.601172 0.003541 C
atom 2.655164 -0.010037 0.000210 C
atom 3.985645 0.756660 0.000404 C
atom 3.983834 2.295290 0.002032 C
atom 5.313630 3.061170 0.002273 C
atom 5.309611 4.598703 0.004017 C
atom 6.639817 5.366630 -0.003814 C
atom 6.639372 6.917235 -0.002015 C
atom 7.982505 7.692941 -0.001031 C
atom 7.982508 9.228484 0.009783 C
atom 9.316302 9.993780 0.010351 C
atom 9.314478 11.528328 0.011169 C
atom 10.647802 12.295908 0.008670 C
atom 10.646626 13.831604 0.004864 C
atom 11.977900 14.599642 0.001811 C
atom 5.317338 -0.012159 -0.000216 C
atom 6.650707 0.755581 0.000384 C
atom 6.649062 2.290296 0.001276 C
atom 7.982519 3.055404 0.002049 C
atom 7.982528 4.591707 -0.004923 C
atom 9.325186 5.366631 -0.003968 C
atom 9.325652 6.917222 -0.002140 C
atom 10.655552 7.685189 0.007594 C
atom 10.651380 9.222838 0.009341 C
atom 11.981394 9.988552 0.009541 C
atom 11.979495 11.527023 0.008117 C
atom 13.310052 12.293866 0.004161 C
atom 13.309589 13.830786 0.001582 C
atom 14.640949 14.599013 -0.000589 C
atom 7.982524 -0.012902 -0.000388 C
atom 9.314332 0.755574 0.000347 C
atom 9.315974 2.290294 0.001183 C
atom 10.651395 3.061174 0.002056 C
atom 10.655422 4.598696 0.003751 C
atom 11.984936 5.371026 0.004504 C
atom 11.985169 6.912838 0.006408 C
atom 13.313274 7.681568 0.007266 C
atom 13.312900 9.219263 0.007881 C
atom 14.644083 9.987830 0.004615 C
atom 14.643065 11.524109 0.002630 C
atom 15.973557 12.292681 -0.000415 C
atom 15.973950 13.829334 -0.001433 C
atom 17.304868 14.596469 -0.001688 C
atom 10.647703 -0.012159 -0.000260 C
atom 11.979390 0.756660 0.000284 C
atom 11.981203 2.295289 0.001796 C
atom 13.312681 3.064408 0.002207 C
atom 13.313112 4.602110 0.003952 C
atom 14.644666 5.372944 0.003719 C
atom 14.644739 6.910645 0.005049 C
atom 15.974016 7.679503 0.003457 C
atom 15.974003 9.218794 0.002856 C
atom 17.304872 9.986767 0.001353 C
atom 17.304870 11.524078 -0.000246 C
atom 18.636184 12.292682 -0.000315 C
atom 18.635790 13.829335 -0.001426 C
atom 19.968787 14.599013 -0.000638 C
atom 13.309873 -0.010034 0.000029 C
atom 14.642954 0.759540 -0.000370 C
atom 14.644033 2.295766 0.000327 C
atom 15.973924 3.064768 0.000035 C
atom 15.973959 4.604043 0.001621 C
atom 17.304871 5.372899 0.001885 C
atom 17.304870 6.910587 0.002692 C
atom 18.635720 7.679502 0.003627 C
atom 18.635737 9.218794 0.002963 C
atom 19.965659 9.987830 0.004805 C
atom 19.966676 11.524112 0.002772 C
atom 21.299684 12.293871 0.004277 C
atom 21.300147 13.830789 0.001567 C
atom 22.631834 14.599645 0.001814 C
atom 15.973536 -0.009100 0.000146 C
atom 17.304872 0.759576 -0.000631 C
atom 17.304871 2.296793 -0.000855 C
atom 18.635815 3.064767 0.000167 C
atom 18.635775 4.604042 0.001787 C
atom 19.965073 5.372944 0.004025 C
atom 19.965000 6.910646 0.005329 C
atom 21.296461 7.681570 0.007602 C
atom 21.296839 9.219270 0.008172 C
atom 22.628335 9.988562 0.009832 C
atom 22.630241 11.527029 0.008349 C
atom 23.961932 12.295911 0.008906 C
atom 23.963107 13.831610 0.004861 C
atom 25.296233 14.601173 0.003509 C
