#============================================
#FHI-aims file
#Model: scaled/Graphene
# geometry index: 1.02
# PBC found: 7x7
#============================================
lattice_vector 17.536456 0.000000 0.000000
lattice_vector 8.768220 15.186996 0.000000
lattice_vector 0.000000 0.000000 59.999966
atom -0.007997 -0.008560 0.000293 C
atom 1.243492 0.714392 -0.000120 C
atom 1.242478 2.159303 0.000508 C
atom 2.494686 2.882256 0.002354 C
atom 2.494279 4.328557 0.004053 C
atom 3.743504 5.051773 0.004571 C
atom 3.743288 6.501932 0.006350 C
atom 4.993864 7.228386 0.007378 C
atom 4.997796 8.674636 0.009012 C
atom 6.253509 9.399741 0.009865 C
atom 6.255231 10.843085 0.010647 C
atom 7.508022 11.565936 0.009960 C
atom 7.508025 13.011571 0.005822 C
atom 8.759896 13.733268 0.003330 C
atom 2.497339 -0.009441 0.000197 C
atom 3.748735 0.711684 0.000380 C
atom 3.747032 2.158856 0.001911 C
atom 4.997783 2.879212 0.002138 C
atom 4.994004 4.325353 0.003778 C
atom 6.245142 5.047633 -0.003587 C
atom 6.244723 6.506070 -0.001895 C
atom 7.508019 7.235667 -0.000970 C
atom 7.508021 8.679936 0.009202 C
atom 8.762534 9.399742 0.009736 C
atom 8.760818 10.843076 0.010505 C
atom 10.014889 11.565030 0.008155 C
atom 10.013783 13.009444 0.004575 C
atom 11.265925 13.731829 0.001703 C
atom 5.001272 -0.011436 -0.000203 C
atom 6.255384 0.710669 0.000361 C
atom 6.253837 2.154159 0.001200 C
atom 7.508032 2.873788 0.001928 C
atom 7.508041 4.318772 -0.004631 C
atom 8.770890 5.047635 -0.003732 C
atom 8.771328 6.506058 -0.002013 C
atom 10.022178 7.228376 0.007143 C
atom 10.018254 8.674626 0.008786 C
atom 11.269211 9.394826 0.008974 C
atom 11.267425 10.841848 0.007634 C
atom 12.518893 11.563109 0.003914 C
atom 12.518458 13.008674 0.001488 C
atom 13.770680 13.731237 -0.000554 C
atom 7.508037 -0.012135 -0.000365 C
atom 8.760681 0.710662 0.000326 C
atom 8.762226 2.154158 0.001113 C
atom 10.018268 2.879216 0.001934 C
atom 10.022056 4.325346 0.003528 C
atom 11.272543 5.051768 0.004237 C
atom 11.272762 6.501933 0.006027 C
atom 12.521923 7.224970 0.006834 C
atom 12.521571 8.671264 0.007412 C
atom 13.773628 9.394146 0.004341 C
atom 13.772670 10.839107 0.002474 C
atom 15.024077 11.561995 -0.000391 C
atom 15.024447 13.007309 -0.001347 C
atom 16.276254 13.728844 -0.001587 C
atom 10.014796 -0.011437 -0.000245 C
atom 11.267326 0.711683 0.000267 C
atom 11.269031 2.158855 0.001689 C
atom 12.521365 2.882257 0.002075 C
atom 12.521771 4.328557 0.003717 C
atom 13.774177 5.053573 0.003498 C
atom 13.774245 6.499872 0.004749 C
atom 15.024509 7.223028 0.003252 C
atom 15.024496 8.670822 0.002686 C
atom 16.276258 9.393147 0.001273 C
atom 16.276256 10.839079 -0.000231 C
atom 17.528436 11.561996 -0.000296 C
atom 17.528065 13.007309 -0.001341 C
atom 18.781828 13.731237 -0.000600 C
atom 12.518724 -0.009438 0.000027 C
atom 13.772566 0.714392 -0.000348 C
atom 13.773581 2.159304 0.000307 C
atom 15.024423 2.882596 0.000033 C
atom 15.024455 4.330375 0.001524 C
atom 16.276257 5.053530 0.001773 C
atom 16.276256 6.499816 0.002532 C
atom 17.528000 7.223027 0.003412 C
atom 17.528015 8.670822 0.002787 C
atom 18.778886 9.394146 0.004519 C
atom 18.779842 10.839111 0.002607 C
atom 20.033615 11.563114 0.004023 C
atom 20.034051 13.008676 0.001474 C
atom 21.286581 13.731831 0.001706 C
atom 15.024058 -0.008559 0.000137 C
atom 16.276258 0.714426 -0.000594 C
atom 16.276257 2.160270 -0.000805 C
atom 17.528089 2.882595 0.000157 C
atom 17.528051 4.330374 0.001681 C
atom 18.778335 5.053573 0.003785 C
atom 18.778266 6.499872 0.005012 C
atom 20.030584 7.224971 0.007150 C
atom 20.030939 8.671270 0.007686 C
atom 21.283290 9.394834 0.009248 C
atom 21.285083 10.841854 0.007853 C
atom 22.537617 11.565033 0.008376 C
atom 22.538722 13.009449 0.004572 C
atom 23.792607 13.733268 0.003300 C
