#============================================
#FHI-aims file
#Model: scaled/Graphene
# geometry index: 0.90
# PBC found: 7x7
#============================================
lattice_vector 15.513656 0.000000 0.000000
lattice_vector 7.756821 13.435202 0.000000
lattice_vector 0.000000 0.000000 59.999966
atom -0.007074 -0.007572 0.000259 C
atom 1.100057 0.631988 -0.000106 C
atom 1.099161 1.910231 0.000450 C
atom 2.206928 2.549792 0.002082 C
atom 2.206568 3.829265 0.003586 C
atom 3.311697 4.469060 0.004044 C
atom 3.311506 5.751946 0.005618 C
atom 4.417830 6.394604 0.006527 C
atom 4.421309 7.674032 0.007972 C
atom 5.532177 8.315498 0.008727 C
atom 5.533701 9.592354 0.009419 C
atom 6.641985 10.231825 0.008811 C
atom 6.641987 11.510709 0.005151 C
atom 7.749458 12.149159 0.002946 C
atom 2.209275 -0.008352 0.000174 C
atom 3.316325 0.629592 0.000336 C
atom 3.314818 1.909836 0.001691 C
atom 4.421298 2.547100 0.001891 C
atom 4.417955 3.826431 0.003342 C
atom 5.524775 4.465398 -0.003174 C
atom 5.524405 5.755606 -0.001677 C
atom 6.641982 6.401045 -0.000858 C
atom 6.641984 7.678720 0.008140 C
atom 7.751791 8.315499 0.008613 C
atom 7.750273 9.592346 0.009293 C
atom 8.859689 10.231024 0.007214 C
atom 8.858710 11.508827 0.004047 C
atom 9.966420 12.147886 0.001507 C
atom 4.424384 -0.010117 -0.000180 C
atom 5.533836 0.628694 0.000319 C
atom 5.532468 1.905680 0.001062 C
atom 6.641994 2.542302 0.001705 C
atom 6.642001 3.820609 -0.004097 C
atom 7.759183 4.465399 -0.003301 C
atom 7.759571 5.755595 -0.001781 C
atom 8.866138 6.394595 0.006319 C
atom 8.862666 7.674023 0.007773 C
atom 9.969327 8.311149 0.007939 C
atom 9.967747 9.591260 0.006753 C
atom 11.074860 10.229325 0.003462 C
atom 11.074475 11.508146 0.001316 C
atom 12.182256 12.147363 -0.000490 C
atom 6.641998 -0.010735 -0.000323 C
atom 7.750152 0.628688 0.000288 C
atom 7.751518 1.905679 0.000984 C
atom 8.862678 2.547103 0.001710 C
atom 8.866029 3.826425 0.003121 C
atom 9.972275 4.469056 0.003748 C
atom 9.972468 5.751947 0.005332 C
atom 11.077541 6.391583 0.006046 C
atom 11.077230 7.671049 0.006557 C
atom 12.184864 8.310548 0.003840 C
atom 12.184017 9.588835 0.002189 C
atom 13.291076 10.228339 -0.000346 C
atom 13.291403 11.506938 -0.001192 C
atom 14.398817 12.145245 -0.001404 C
atom 8.859607 -0.010117 -0.000217 C
atom 9.967660 0.629592 0.000236 C
atom 9.969168 1.909835 0.001494 C
atom 11.077048 2.549794 0.001836 C
atom 11.077406 3.829266 0.003288 C
atom 12.185349 4.470652 0.003095 C
atom 12.185409 5.750123 0.004201 C
atom 13.291458 6.389864 0.002877 C
atom 13.291447 7.670658 0.002376 C
atom 14.398820 8.309663 0.001126 C
atom 14.398818 9.588810 -0.000205 C
atom 15.506561 10.228339 -0.000262 C
atom 15.506233 11.506939 -0.001186 C
atom 16.615377 12.147362 -0.000531 C
atom 11.074711 -0.008349 0.000024 C
atom 12.183925 0.631989 -0.000308 C
atom 12.184822 1.910232 0.000272 C
atom 13.291382 2.550094 0.000029 C
atom 13.291410 3.830874 0.001349 C
atom 14.398819 4.470614 0.001569 C
atom 14.398818 5.750074 0.002240 C
atom 15.506175 6.389863 0.003018 C
atom 15.506189 7.670658 0.002466 C
atom 16.612774 8.310548 0.003998 C
atom 16.613620 9.588838 0.002307 C
atom 17.722772 10.229329 0.003559 C
atom 17.723158 11.508148 0.001304 C
atom 18.831211 12.147888 0.001509 C
atom 13.291059 -0.007572 0.000121 C
atom 14.398820 0.632018 -0.000525 C
atom 14.398819 1.911087 -0.000712 C
atom 15.506254 2.550093 0.000139 C
atom 15.506221 3.830873 0.001487 C
atom 16.612286 4.470652 0.003349 C
atom 16.612225 5.750123 0.004434 C
atom 17.720091 6.391584 0.006325 C
atom 17.720405 7.671054 0.006799 C
atom 18.828300 8.311156 0.008181 C
atom 18.829885 9.591265 0.006947 C
atom 19.937942 10.231026 0.007410 C
atom 19.938920 11.508832 0.004045 C
atom 21.048171 12.149160 0.002920 C
