#============================================
#FHI-aims file
#Model: scaled/Graphene
# geometry index: 1.00
# PBC found: 7x7
#============================================
lattice_vector 17.237396 0.000000 0.000000
lattice_vector 8.618690 14.928003 0.000000
lattice_vector 0.000000 0.000000 59.999966
atom -0.007860 -0.008414 0.000288 C
atom 1.222286 0.702209 -0.000118 C
atom 1.221290 2.122479 0.000499 C
atom 2.452142 2.833103 0.002313 C
atom 2.451743 4.254739 0.003984 C
atom 3.679663 4.965622 0.004493 C
atom 3.679451 6.391051 0.006242 C
atom 4.908700 7.105116 0.007252 C
atom 4.912566 8.526702 0.008858 C
atom 6.146864 9.239442 0.009697 C
atom 6.148557 10.658171 0.010465 C
atom 7.379983 11.368695 0.009790 C
atom 7.379986 12.789677 0.005723 C
atom 8.610508 13.499066 0.003274 C
atom 2.454750 -0.009280 0.000194 C
atom 3.684806 0.699547 0.000374 C
atom 3.683131 2.122040 0.001879 C
atom 4.912553 2.830111 0.002101 C
atom 4.908838 4.251590 0.003714 C
atom 6.138639 4.961553 -0.003526 C
atom 6.138227 6.395117 -0.001863 C
atom 7.379980 7.112272 -0.000953 C
atom 7.379983 8.531911 0.009045 C
atom 8.613101 9.239443 0.009570 C
atom 8.611415 10.658162 0.010326 C
atom 9.844099 11.367804 0.008016 C
atom 9.843012 12.787585 0.004497 C
atom 11.073800 13.497651 0.001674 C
atom 4.915982 -0.011241 -0.000200 C
atom 6.148707 0.698549 0.000355 C
atom 6.147187 2.117423 0.001179 C
atom 7.379993 2.824780 0.001895 C
atom 7.380001 4.245122 -0.004552 C
atom 8.621314 4.961554 -0.003668 C
atom 8.621745 6.395106 -0.001978 C
atom 9.851264 7.105106 0.007021 C
atom 9.847407 8.526692 0.008636 C
atom 11.077030 9.234610 0.008821 C
atom 11.075275 10.656955 0.007504 C
atom 12.305400 11.365916 0.003847 C
atom 12.304973 12.786829 0.001463 C
atom 13.535840 13.497070 -0.000545 C
atom 7.379998 -0.011928 -0.000359 C
atom 8.611280 0.698543 0.000320 C
atom 8.612798 2.117421 0.001094 C
atom 9.847420 2.830115 0.001901 C
atom 9.851144 4.251583 0.003467 C
atom 11.080305 4.965617 0.004164 C
atom 11.080520 6.391052 0.005924 C
atom 12.308379 7.101758 0.006717 C
atom 12.308033 8.523387 0.007286 C
atom 13.538737 9.233942 0.004267 C
atom 13.537796 10.654261 0.002432 C
atom 14.767862 11.364821 -0.000384 C
atom 14.768226 12.785487 -0.001324 C
atom 15.998685 13.494717 -0.001560 C
atom 9.844007 -0.011242 -0.000241 C
atom 11.075178 0.699547 0.000263 C
atom 11.076854 2.122039 0.001660 C
atom 12.307831 2.833104 0.002040 C
atom 12.308229 4.254740 0.003653 C
atom 13.539277 4.967391 0.003439 C
atom 13.539344 6.389025 0.004668 C
atom 14.768286 7.099849 0.003196 C
atom 14.768274 8.522953 0.002640 C
atom 15.998689 9.232959 0.001251 C
atom 15.998687 10.654233 -0.000227 C
atom 17.229513 11.364822 -0.000291 C
atom 17.229148 12.785488 -0.001318 C
atom 18.461530 13.497069 -0.000590 C
atom 12.305235 -0.009277 0.000027 C
atom 13.537694 0.702209 -0.000342 C
atom 13.538692 2.122480 0.000302 C
atom 14.768202 2.833438 0.000032 C
atom 14.768234 4.256526 0.001498 C
atom 15.998687 4.967349 0.001743 C
atom 15.998687 6.388971 0.002488 C
atom 17.229084 7.099848 0.003353 C
atom 17.229099 8.522953 0.002740 C
atom 18.458638 9.233942 0.004442 C
atom 18.459578 10.654265 0.002563 C
atom 19.691969 11.365921 0.003955 C
atom 19.692398 12.786831 0.001449 C
atom 20.923568 13.497654 0.001677 C
atom 14.767843 -0.008413 0.000135 C
atom 15.998688 0.702242 -0.000583 C
atom 15.998688 2.123430 -0.000791 C
atom 17.229171 2.833436 0.000155 C
atom 17.229134 4.256525 0.001652 C
atom 18.458096 4.967391 0.003721 C
atom 18.458028 6.389025 0.004926 C
atom 19.688990 7.101759 0.007028 C
atom 19.689339 8.523393 0.007555 C
atom 20.920333 9.234618 0.009090 C
atom 20.922095 10.656961 0.007719 C
atom 22.153269 11.367807 0.008233 C
atom 22.154356 12.787591 0.004494 C
atom 23.386856 13.499066 0.003244 C
